============================[ Problem Statistics ]=============================|                                                                             ||  Number of variables:          4242                                         ||  Number of clauses:           10076                                         ||  Parse time:                   0.48 s                                       ||                                                                             |============================[ Search Statistics ]==============================| Conflicts |          ORIGINAL         |          LEARNT          | Progress ||           |    Vars  Clauses Literals |    Limit  Clauses Lit/Cl |          |===============================================================================|       100 |    1591     6281   740472 |     2303      100     53 | 62.501 % ||       250 |    1591     6281   740472 |     2533      250     75 | 62.495 % |===============================================================================restarts              : 3conflicts             : 262            (365 /sec)decisions             : 527            (0.00 % random) (734 /sec)propagations          : 11777          (16403 /sec)conflict literals     : 20026          (94.86 % deleted)CPU time              : 0.718 sSATISFIABLE